(set-logic LIA)
(synth-fun f ((a1 Int) (a2 Int) (a3 Int) (a4 Int) (a5 Int) (a6 Int) (a7 Int) (a8 Int) (a9 Int) (a10 Int) (a11 Int) (a12 Int) (a13 Int) (a14 Int) (a15 Int) (x1 Int) (x2 Int) (x3 Int) ) Int)
(define-fun iteB (( b1 Bool ) (b2 Bool ) (b3 Bool )) Bool ( or ( and b1 b2 ) ( and (not b1 ) b3 ) ) )

(declare-var a1 Int)
(declare-var a2 Int)
(declare-var a3 Int)
(declare-var a4 Int)
(declare-var a5 Int)
(declare-var a6 Int)
(declare-var a7 Int)
(declare-var a8 Int)
(declare-var a9 Int)
(declare-var a10 Int)
(declare-var a11 Int)
(declare-var a12 Int)
(declare-var a13 Int)
(declare-var a14 Int)
(declare-var a15 Int)
(declare-var x1 Int)
(declare-var x2 Int)
(declare-var x3 Int)

(constraint (and (= (f a1 a2 a3 a4 a5 a6 a7 a8 a9 a10 a11 a12 a13 a14 a15 x1 x2 x3) (f a1 a2 a3 a4 a5 a6 a7 a8 a9 a10 a11 a12 a13 a14 a15 x2 x1 x3))
(iteB (and true  (>= a1 a2)  (>= a1 a3)  (>= a1 a4)  (>= a1 a5)  (>= a1 a6)  (>= a1 a7)  (>= a1 a8)  (>= a1 a9)  (>= a1 a10)  (>= a1 a11)  (>= a1 a12)  (>= a1 a13)  (>= a1 a14)  (>= a1 a15) ) (or (= (f a1 a2 a3 a4 a5 a6 a7 a8 a9 a10 a11 a12 a13 a14 a15 x1 x2 x3) (+ (* 10 x1) (+ (* 24 x2) (* 8 x3)))) (= (f a1 a2 a3 a4 a5 a6 a7 a8 a9 a10 a11 a12 a13 a14 a15 x1 x2 x3) (+ (* 10 x2) (+ (* 24 x1) (* 8 x3))))) (iteB (and true  (>= a2 a1)  (>= a2 a3)  (>= a2 a4)  (>= a2 a5)  (>= a2 a6)  (>= a2 a7)  (>= a2 a8)  (>= a2 a9)  (>= a2 a10)  (>= a2 a11)  (>= a2 a12)  (>= a2 a13)  (>= a2 a14)  (>= a2 a15) ) (or (= (f a1 a2 a3 a4 a5 a6 a7 a8 a9 a10 a11 a12 a13 a14 a15 x1 x2 x3) (+ (* 11 x1) (+ (* 25 x2) (* 9 x3)))) (= (f a1 a2 a3 a4 a5 a6 a7 a8 a9 a10 a11 a12 a13 a14 a15 x1 x2 x3) (+ (* 11 x2) (+ (* 25 x1) (* 9 x3))))) (iteB (and true  (>= a3 a1)  (>= a3 a2)  (>= a3 a4)  (>= a3 a5)  (>= a3 a6)  (>= a3 a7)  (>= a3 a8)  (>= a3 a9)  (>= a3 a10)  (>= a3 a11)  (>= a3 a12)  (>= a3 a13)  (>= a3 a14)  (>= a3 a15) ) (or (= (f a1 a2 a3 a4 a5 a6 a7 a8 a9 a10 a11 a12 a13 a14 a15 x1 x2 x3) (+ (* 12 x1) (+ (* 26 x2) (* 10 x3)))) (= (f a1 a2 a3 a4 a5 a6 a7 a8 a9 a10 a11 a12 a13 a14 a15 x1 x2 x3) (+ (* 12 x2) (+ (* 26 x1) (* 10 x3))))) (iteB (and true  (>= a4 a1)  (>= a4 a2)  (>= a4 a3)  (>= a4 a5)  (>= a4 a6)  (>= a4 a7)  (>= a4 a8)  (>= a4 a9)  (>= a4 a10)  (>= a4 a11)  (>= a4 a12)  (>= a4 a13)  (>= a4 a14)  (>= a4 a15) ) (or (= (f a1 a2 a3 a4 a5 a6 a7 a8 a9 a10 a11 a12 a13 a14 a15 x1 x2 x3) (+ (* 13 x1) (+ (* 27 x2) (* 11 x3)))) (= (f a1 a2 a3 a4 a5 a6 a7 a8 a9 a10 a11 a12 a13 a14 a15 x1 x2 x3) (+ (* 13 x2) (+ (* 27 x1) (* 11 x3))))) (iteB (and true  (>= a5 a1)  (>= a5 a2)  (>= a5 a3)  (>= a5 a4)  (>= a5 a6)  (>= a5 a7)  (>= a5 a8)  (>= a5 a9)  (>= a5 a10)  (>= a5 a11)  (>= a5 a12)  (>= a5 a13)  (>= a5 a14)  (>= a5 a15) ) (or (= (f a1 a2 a3 a4 a5 a6 a7 a8 a9 a10 a11 a12 a13 a14 a15 x1 x2 x3) (+ (* 14 x1) (+ (* 28 x2) (* 12 x3)))) (= (f a1 a2 a3 a4 a5 a6 a7 a8 a9 a10 a11 a12 a13 a14 a15 x1 x2 x3) (+ (* 14 x2) (+ (* 28 x1) (* 12 x3))))) (iteB (and true  (>= a6 a1)  (>= a6 a2)  (>= a6 a3)  (>= a6 a4)  (>= a6 a5)  (>= a6 a7)  (>= a6 a8)  (>= a6 a9)  (>= a6 a10)  (>= a6 a11)  (>= a6 a12)  (>= a6 a13)  (>= a6 a14)  (>= a6 a15) ) (or (= (f a1 a2 a3 a4 a5 a6 a7 a8 a9 a10 a11 a12 a13 a14 a15 x1 x2 x3) (+ (* 15 x1) (+ (* 29 x2) (* 13 x3)))) (= (f a1 a2 a3 a4 a5 a6 a7 a8 a9 a10 a11 a12 a13 a14 a15 x1 x2 x3) (+ (* 15 x2) (+ (* 29 x1) (* 13 x3))))) (iteB (and true  (>= a7 a1)  (>= a7 a2)  (>= a7 a3)  (>= a7 a4)  (>= a7 a5)  (>= a7 a6)  (>= a7 a8)  (>= a7 a9)  (>= a7 a10)  (>= a7 a11)  (>= a7 a12)  (>= a7 a13)  (>= a7 a14)  (>= a7 a15) ) (or (= (f a1 a2 a3 a4 a5 a6 a7 a8 a9 a10 a11 a12 a13 a14 a15 x1 x2 x3) (+ (* 16 x1) (+ (* 30 x2) (* 14 x3)))) (= (f a1 a2 a3 a4 a5 a6 a7 a8 a9 a10 a11 a12 a13 a14 a15 x1 x2 x3) (+ (* 16 x2) (+ (* 30 x1) (* 14 x3))))) (iteB (and true  (>= a8 a1)  (>= a8 a2)  (>= a8 a3)  (>= a8 a4)  (>= a8 a5)  (>= a8 a6)  (>= a8 a7)  (>= a8 a9)  (>= a8 a10)  (>= a8 a11)  (>= a8 a12)  (>= a8 a13)  (>= a8 a14)  (>= a8 a15) ) (or (= (f a1 a2 a3 a4 a5 a6 a7 a8 a9 a10 a11 a12 a13 a14 a15 x1 x2 x3) (+ (* 17 x1) (+ (* 31 x2) (* 15 x3)))) (= (f a1 a2 a3 a4 a5 a6 a7 a8 a9 a10 a11 a12 a13 a14 a15 x1 x2 x3) (+ (* 17 x2) (+ (* 31 x1) (* 15 x3))))) (iteB (and true  (>= a9 a1)  (>= a9 a2)  (>= a9 a3)  (>= a9 a4)  (>= a9 a5)  (>= a9 a6)  (>= a9 a7)  (>= a9 a8)  (>= a9 a10)  (>= a9 a11)  (>= a9 a12)  (>= a9 a13)  (>= a9 a14)  (>= a9 a15) ) (or (= (f a1 a2 a3 a4 a5 a6 a7 a8 a9 a10 a11 a12 a13 a14 a15 x1 x2 x3) (+ (* 18 x1) (+ (* 32 x2) (* 16 x3)))) (= (f a1 a2 a3 a4 a5 a6 a7 a8 a9 a10 a11 a12 a13 a14 a15 x1 x2 x3) (+ (* 18 x2) (+ (* 32 x1) (* 16 x3))))) (iteB (and true  (>= a10 a1)  (>= a10 a2)  (>= a10 a3)  (>= a10 a4)  (>= a10 a5)  (>= a10 a6)  (>= a10 a7)  (>= a10 a8)  (>= a10 a9)  (>= a10 a11)  (>= a10 a12)  (>= a10 a13)  (>= a10 a14)  (>= a10 a15) ) (or (= (f a1 a2 a3 a4 a5 a6 a7 a8 a9 a10 a11 a12 a13 a14 a15 x1 x2 x3) (+ (* 19 x1) (+ (* 33 x2) (* 17 x3)))) (= (f a1 a2 a3 a4 a5 a6 a7 a8 a9 a10 a11 a12 a13 a14 a15 x1 x2 x3) (+ (* 19 x2) (+ (* 33 x1) (* 17 x3))))) (iteB (and true  (>= a11 a1)  (>= a11 a2)  (>= a11 a3)  (>= a11 a4)  (>= a11 a5)  (>= a11 a6)  (>= a11 a7)  (>= a11 a8)  (>= a11 a9)  (>= a11 a10)  (>= a11 a12)  (>= a11 a13)  (>= a11 a14)  (>= a11 a15) ) (or (= (f a1 a2 a3 a4 a5 a6 a7 a8 a9 a10 a11 a12 a13 a14 a15 x1 x2 x3) (+ (* 20 x1) (+ (* 34 x2) (* 18 x3)))) (= (f a1 a2 a3 a4 a5 a6 a7 a8 a9 a10 a11 a12 a13 a14 a15 x1 x2 x3) (+ (* 20 x2) (+ (* 34 x1) (* 18 x3))))) (iteB (and true  (>= a12 a1)  (>= a12 a2)  (>= a12 a3)  (>= a12 a4)  (>= a12 a5)  (>= a12 a6)  (>= a12 a7)  (>= a12 a8)  (>= a12 a9)  (>= a12 a10)  (>= a12 a11)  (>= a12 a13)  (>= a12 a14)  (>= a12 a15) ) (or (= (f a1 a2 a3 a4 a5 a6 a7 a8 a9 a10 a11 a12 a13 a14 a15 x1 x2 x3) (+ (* 21 x1) (+ (* 35 x2) (* 19 x3)))) (= (f a1 a2 a3 a4 a5 a6 a7 a8 a9 a10 a11 a12 a13 a14 a15 x1 x2 x3) (+ (* 21 x2) (+ (* 35 x1) (* 19 x3))))) (iteB (and true  (>= a13 a1)  (>= a13 a2)  (>= a13 a3)  (>= a13 a4)  (>= a13 a5)  (>= a13 a6)  (>= a13 a7)  (>= a13 a8)  (>= a13 a9)  (>= a13 a10)  (>= a13 a11)  (>= a13 a12)  (>= a13 a14)  (>= a13 a15) ) (or (= (f a1 a2 a3 a4 a5 a6 a7 a8 a9 a10 a11 a12 a13 a14 a15 x1 x2 x3) (+ (* 22 x1) (+ (* 36 x2) (* 20 x3)))) (= (f a1 a2 a3 a4 a5 a6 a7 a8 a9 a10 a11 a12 a13 a14 a15 x1 x2 x3) (+ (* 22 x2) (+ (* 36 x1) (* 20 x3))))) (iteB (and true  (>= a14 a1)  (>= a14 a2)  (>= a14 a3)  (>= a14 a4)  (>= a14 a5)  (>= a14 a6)  (>= a14 a7)  (>= a14 a8)  (>= a14 a9)  (>= a14 a10)  (>= a14 a11)  (>= a14 a12)  (>= a14 a13)  (>= a14 a15) ) (or (= (f a1 a2 a3 a4 a5 a6 a7 a8 a9 a10 a11 a12 a13 a14 a15 x1 x2 x3) (+ (* 23 x1) (+ (* 37 x2) (* 21 x3)))) (= (f a1 a2 a3 a4 a5 a6 a7 a8 a9 a10 a11 a12 a13 a14 a15 x1 x2 x3) (+ (* 23 x2) (+ (* 37 x1) (* 21 x3)))))  (or (= (f a1 a2 a3 a4 a5 a6 a7 a8 a9 a10 a11 a12 a13 a14 a15 x1 x2 x3) (+ (* 24 x1) (+ (* 38 x2) (* 22 x3)))) (= (f a1 a2 a3 a4 a5 a6 a7 a8 a9 a10 a11 a12 a13 a14 a15 x1 x2 x3) (+ (* 24 x2) (+ (* 38 x1) (* 22 x3)))))))))))))))))))))
(check-synth)